M2 Ni1 O1
4.104210848570817
0.00000000 0.50000000 0.50000000
0.50000000 0.00000000 0.50000000
1.00000000 1.00000000 0.00000000
Ni O 
1 2 
direct
0.00000000 0.00000000 0.00000000 Ni
0.50000000 0.50000000 0.25000000 O
0.50000000 0.50000000 0.75000000 O
