M2 Ni1 O1
4.104210848570817
0.00000000 0.50000000 0.50000000
0.50000000 0.00000000 0.50000000
0.50000000 0.50000000 0.00000000
Ni O 
1 1 
direct
0.00000000 0.00000000 0.00000000 Ni
0.50000000 0.50000000 0.50000000 O
