Mg2 Cr4 O8
1.0
4.16384000 4.16384000 0.00000000
4.16384000 0.00000000 -4.16384000
0.00000000 4.16384000 -4.16384000
Cr O 
4 8 
direct
0.50000000 0.50000000 0.50000000 Cr
0.00000000 0.50000000 0.50000000 Cr
0.00000000 0.50000000 0.00000000 Cr
0.00000000 0.00000000 0.50000000 Cr
0.77610000 0.74130000 0.74130000 O
0.22390000 0.25870000 0.25870000 O
0.24130000 0.74130000 0.74130000 O
0.75870000 0.25870000 0.25870000 O
0.24130000 0.74130000 0.27610000 O
0.75870000 0.25870000 0.72390000 O
0.24130000 0.27610000 0.74130000 O
0.75870000 0.72390000 0.25870000 O
