M2 Ni1 O1
4.104210848570817
0.00000000 0.50000000 0.50000000
0.50000000 0.00000000 0.50000000
1.00000000 1.00000000 0.00000000
Li Ni O 
4 1 2 
direct
0.25000000 0.25000000 0.12500000 Li
0.75000000 0.75000000 0.37500000 Li
0.25000000 0.25000000 0.62500000 Li
0.75000000 0.75000000 0.87500000 Li
0.00000000 0.00000000 0.00000000 Ni
0.50000000 0.50000000 0.25000000 O
0.50000000 0.50000000 0.75000000 O
